(declare-const delta_param0 Int)
(declare-const delta_param1 Int)
(declare-const delta_param1@width Int)
(declare-const delta_param2@pos Int)
(declare-const delta_j Int)
(declare-const delta_param2 Int)
(declare-const delta_i Int)
(declare-const delta_param2@width Int)
(declare-const delta_param1@pos Int)
(declare-const delta_param0@pos Int)
(declare-const delta_param0@width Int)
(assert (exists
         ((|i'?1| Int) (|param0'?2| Int) (|param1'?3| Int) (|param2'?4| Int)
            (|param0@pos'?5| Int) (|param1@pos'?6| Int) (|param2@pos'?7| Int)
            (|param0@width'?8| Int) (|param1@width'?9| Int)
            (|param2@width'?10| Int) (|S1,0?11| Real) (|j'?12| Int)
            (KSUM1?13 Int) (|K1,0?14| Int) (K?15 Int)
            (|param2@width'?16| Int) (|param1@width'?17| Int)
            (|param2@pos'?18| Int) (|param1@pos'?19| Int) (|param2'?20| Int)
            (|param1'?21| Int) (|j'?22| Int) (|param0@width'?23| Int)
            (|param0@pos'?24| Int) (|param0'?25| Int) (stderr?26 Int)
            (stderr@pos?27 Int) (stderr@width?28 Int) (nj?29 Int) (j?30 Int)
            (ni?31 Int) (i?32 Int) (param2@width?33 Int) (param2@pos?34 Int)
            (param2?35 Int) (param1?36 Int) (param1@pos?37 Int)
            (param1@width?38 Int) (param0?39 Int) (param0@pos?40 Int)
            (param0@width?41 Int))
         (and (<= (- i?32) 0) (< (+ (- ni?31) i?32) 0) (<= (- K?15) 0)
                (<= (- |K1,0?14|) 0) (= (+ |K1,0?14| (- K?15)) 0)
                (<= (+ KSUM1?13 (- K?15)) 0)
                (= (+ (- |S1,0?11|) |j'?12| (- |K1,0?14|)) 0)
                (= (+ (- KSUM1?13) |K1,0?14|) 0) (= |S1,0?11| 0)
                (or (and (= K?15 0)
                           (= (+ (- |param2@width'?10|) param2@width?33) 0)
                           (= (+ (- |param1@width'?9|) param1@width?38) 0)
                           (= (+ (- |param0@width'?8|) param0@width?41) 0)
                           (= (+ (- |param2@pos'?7|) param2@pos?34) 0)
                           (= (+ (- |param1@pos'?6|) param1@pos?37) 0)
                           (= (+ (- |param0@pos'?5|) param0@pos?40) 0)
                           (= (+ (- |param2'?4|) param2?35) 0)
                           (= (+ (- |param1'?3|) param1?36) 0)
                           (= (+ (- |param0'?2|) param0?39) 0)
                           (= (- |j'?12|) 0))
                      (and (<= (+ (- K?15) 1) 0) (<= (+ (- nj?29) 1) 0)
                             (<= (+ (mod i?32 20) -19) 0)
                             (<= (- (mod i?32 20)) 0) (<= (- i?32) 0)
                             (= (+ stderr?26 (- |param0'?2|)) 0)
                             (= (+ stderr@pos?27 (- |param0@pos'?5|)) 0)
                             (= (+ stderr@width?28 (- |param0@width'?8|)) 0)
                             (<= (+ (- nj?29) |j'?12|) 0)
                             (<= (+ (mod i?32 20) -19) 0)
                             (<= (- (mod i?32 20)) 0) (<= (- i?32) 0)
                             (<= (+ (- |j'?12|) 1) 0)))
                (= (+ |j'?12| (- K?15)) 0) (<= (- K?15) 0) (<= (- |j'?12|) 0)
                (<= (- i?32) 0) (<= (+ nj?29 (- |j'?12|)) 0)
                (= (+ |param2@width'?16| (- |param2@width'?10|)) 0)
                (= (+ |param1@width'?17| (- |param1@width'?9|)) 0)
                (= (+ |param0@width'?23| (- |param0@width'?8|)) 0)
                (= (+ |param2@pos'?18| (- |param2@pos'?7|)) 0)
                (= (+ |param1@pos'?19| (- |param1@pos'?6|)) 0)
                (= (+ |param0@pos'?24| (- |param0@pos'?5|)) 0)
                (= (+ |param2'?20| (- |param2'?4|)) 0)
                (= (+ |param1'?21| (- |param1'?3|)) 0)
                (= (+ |param0'?25| (- |param0'?2|)) 0)
                (= (+ |j'?22| (- |j'?12|)) 0) (= (+ |i'?1| (- i?32) -1) 0)
                (= delta_i (+ |i'?1| (- i?32)))
                (= delta_j (+ |j'?22| (- j?30)))
                (= delta_param0 (+ |param0'?25| (- param0?39)))
                (= delta_param1 (+ |param1'?21| (- param1?36)))
                (= delta_param2 (+ |param2'?20| (- param2?35)))
                (= delta_param0@pos (+ |param0@pos'?24| (- param0@pos?40)))
                (= delta_param1@pos (+ |param1@pos'?19| (- param1@pos?37)))
                (= delta_param2@pos (+ |param2@pos'?18| (- param2@pos?34)))
                (= delta_param0@width (+ |param0@width'?23|
                                           (- param0@width?41)))
                (= delta_param1@width (+ |param1@width'?17|
                                           (- param1@width?38)))
                (= delta_param2@width (+ |param2@width'?16|
                                           (- param2@width?33))))))
(check-sat)
